num_offers = 20;
num_halls = 10;
start=[28,75,24,9,1,61,5,30,49,16,22,51,32,35,50,14,12,29,52,12];
end=[40,99,62,73,90,73,86,50,93,19,38,68,57,66,59,69,94,44,86,86];
price=[903,440,1180,2984,2028,1098,3719,2026,4333,78,1418,1086,458,1314,448,2866,3848,1400,2932,3481];
requirement=[466,444,413,583,384,557,422,664,528,711,458,669,528,734,569,722,435,788,552,700];
capacity=[875,676,476,404,845,771,770,330,453,701];
